! Generated by EMerge - 2-port S-parameters
! File generated: 2026-03-21 19:04 
# GHZ S RI R 50
1.000000e-01  -3.335553e-02  3.968242e-03  9.604948e-01  -1.039219e-01  9.604953e-01  -1.039175e-01  -3.355269e-02  3.994579e-03
5.000000e-01  -2.456771e-02  1.314006e-02  8.263806e-01  -4.960227e-01  8.263931e-01  -4.960039e-01  -2.879116e-02  1.575413e-02
1.000000e+00  -2.478558e-02  -6.203650e-03  4.410854e-01  -8.529991e-01  4.411270e-01  -8.529816e-01  -3.370054e-02  1.159360e-02
1.500000e+00  -8.622588e-02  -1.858326e-02  -1.001889e-01  -9.488062e-01  -1.001229e-01  -9.488204e-01  -8.096296e-02  2.584393e-02
2.000000e+00  -1.635047e-01  6.348216e-02  -6.336019e-01  -6.919961e-01  -6.335441e-01  -6.920635e-01  -1.101183e-01  1.204198e-01
2.200000e+00  -1.626142e-01  1.187662e-01  -7.917774e-01  -4.869732e-01  -7.917366e-01  -4.870612e-01  -8.303869e-02  1.665082e-01
2.400000e+00  -1.311085e-01  1.614758e-01  -8.940144e-01  -2.283812e-01  -8.939996e-01  -2.284852e-01  -2.661653e-02  1.871073e-01
2.600000e+00  -8.106535e-02  1.563882e-01  -9.177196e-01  8.668885e-02  -9.177400e-01  8.657694e-02  3.949622e-02  1.441794e-01
2.800000e+00  -8.002505e-02  6.112148e-02  -7.957941e-01  4.680264e-01  -7.958608e-01  4.679233e-01  3.100574e-02  -4.212140e-03
3.000000e+00  -3.285607e-01  -3.768985e-02  -3.324747e-01  7.892213e-01  -3.325854e-01  7.891681e-01  -2.839496e-01  -1.377040e-01
3.200000e+00  -6.427869e-01  3.759966e-01  2.296316e-01  4.796951e-01  2.295480e-01  4.797118e-01  -6.491626e-01  3.473542e-01
3.400000e+00  -3.600502e-01  8.218665e-01  1.581774e-01  8.215597e-02  1.581388e-01  8.217203e-02  -3.070082e-01  8.350668e-01
3.600000e+00  5.199183e-03  9.107387e-01  7.270156e-03  9.885499e-03  7.241052e-03  9.889057e-03  1.057869e-01  8.977523e-01
3.800000e+00  2.783325e-01  8.602696e-01  -5.320680e-02  2.785673e-02  -5.323632e-02  2.785774e-02  3.978047e-01  8.055576e-01
4.000000e+00  4.827155e-01  7.581878e-01  -6.063679e-02  4.915880e-02  -6.066586e-02  4.916339e-02  6.034241e-01  6.601153e-01
4.200000e+00  6.394135e-01  6.284097e-01  -4.511255e-02  5.473736e-02  -4.513741e-02  5.474776e-02  7.490311e-01  4.872757e-01
4.400000e+00  7.582643e-01  4.781083e-01  -2.348473e-02  4.094477e-02  -2.350060e-02  4.096039e-02  8.455428e-01  2.940041e-01
4.600000e+00  8.421532e-01  3.092290e-01  -7.210223e-03  7.140321e-03  -7.211807e-03  7.157733e-03  8.940766e-01  8.220977e-02
4.800000e+00  8.883060e-01  1.218307e-01  -7.846608e-03  -4.652608e-02  -7.828517e-03  -4.651417e-02  8.874064e-01  -1.464839e-01
5.000000e+00  8.869804e-01  -8.319366e-02  -4.161203e-02  -1.170113e-01  -4.157048e-02  -1.170183e-01  8.085443e-01  -3.853971e-01
5.200000e+00  8.189124e-01  -2.975689e-01  -1.327482e-01  -1.899722e-01  -1.326863e-01  -1.900204e-01  6.301424e-01  -6.107066e-01
5.400000e+00  6.586771e-01  -4.894567e-01  -3.061932e-01  -2.201101e-01  -3.061341e-01  -2.202294e-01  3.293293e-01  -7.575386e-01
5.600000e+00  4.086854e-01  -5.850922e-01  -5.399319e-01  -1.159110e-01  -5.399351e-01  -1.161164e-01  -4.693582e-02  -7.110182e-01
5.800000e+00  1.648901e-01  -5.190071e-01  -6.924347e-01  1.796478e-01  -6.925748e-01  1.794038e-01  -3.068765e-01  -4.265528e-01
6.000000e+00  5.221830e-02  -3.631880e-01  -6.165891e-01  5.367880e-01  -6.168773e-01  5.366072e-01  -2.957826e-01  -9.860469e-02
6.200000e+00  5.154350e-02  -2.504173e-01  -3.659708e-01  7.768139e-01  -3.663463e-01  7.767658e-01  -1.287981e-01  6.647513e-02
6.400000e+00  7.012419e-02  -2.086917e-01  -6.791887e-02  8.676416e-01  -6.831328e-02  8.677410e-01  2.033731e-02  7.472335e-02
6.600000e+00  6.068036e-02  -1.983216e-01  2.165406e-01  8.475904e-01  2.161782e-01  8.478288e-01  8.658646e-02  1.529242e-02
6.800000e+00  2.194362e-02  -1.774580e-01  4.704835e-01  7.434638e-01  4.701951e-01  7.438263e-01  7.401240e-02  -4.099938e-02
7.000000e+00  -2.290756e-02  -1.196981e-01  6.805039e-01  5.636281e-01  6.803301e-01  5.640914e-01  1.269852e-02  -4.993618e-02
7.200000e+00  -3.723685e-02  -2.038443e-02  8.206024e-01  3.156496e-01  8.205813e-01  3.161737e-01  -5.253567e-02  9.797360e-03
7.400000e+00  1.495939e-02  9.543681e-02  8.574162e-01  2.651402e-02  8.575700e-01  2.703853e-02  -6.975746e-02  1.293568e-01
7.600000e+00  1.446008e-01  1.763029e-01  7.738416e-01  -2.501695e-01  7.741608e-01  -2.497151e-01  -1.694817e-03  2.647198e-01
7.800000e+00  3.206929e-01  1.716362e-01  5.915183e-01  -4.547014e-01  5.919589e-01  -4.543742e-01  1.490463e-01  3.554418e-01
8.000000e+00  4.848702e-01  6.398549e-02  3.636766e-01  -5.543364e-01  3.641761e-01  -5.541623e-01  3.412477e-01  3.601018e-01
8.200000e+00  5.838615e-01  -1.260615e-01  1.447275e-01  -5.535405e-01  1.452275e-01  -5.535141e-01  5.237110e-01  2.733065e-01
8.400000e+00  5.868791e-01  -3.584330e-01  -2.994425e-02  -4.780086e-01  -2.948636e-02  -4.781056e-01  6.590846e-01  1.142504e-01
8.600000e+00  4.829849e-01  -5.893722e-01  -1.432052e-01  -3.570843e-01  -1.428154e-01  -3.572727e-01  7.270817e-01  -9.110690e-02
8.800000e+00  2.747047e-01  -7.744574e-01  -1.875542e-01  -2.182038e-01  -1.872442e-01  -2.184499e-01  7.168132e-01  -3.180711e-01
9.000000e+00  -2.027197e-02  -8.658405e-01  -1.609830e-01  -9.053672e-02  -1.607518e-01  -9.080776e-02  6.201722e-01  -5.411459e-01
9.200000e+00  -3.577919e-01  -8.159762e-01  -7.236030e-02  -9.579953e-03  -7.219293e-02  -9.847840e-03  4.323305e-01  -7.268761e-01
9.400000e+00  -6.571644e-01  -6.000163e-01  4.507287e-02  -1.167768e-02  4.520458e-02  -1.192745e-02  1.626185e-01  -8.286119e-01
9.600000e+00  -8.190278e-01  -2.537056e-01  1.265279e-01  -1.086502e-01  1.266560e-01  -1.088897e-01  -1.463927e-01  -7.943498e-01
9.800000e+00  -7.869260e-01  1.147360e-01  9.988686e-02  -2.534563e-01  1.000309e-01  -2.537156e-01  -4.039794e-01  -5.956223e-01
1.000000e+01  -6.085410e-01  3.856689e-01  -4.884464e-02  -3.284551e-01  -4.868512e-02  -3.287800e-01  -4.691489e-01  -2.939562e-01
1.020000e+01  -3.907420e-01  5.610107e-01  -1.563521e-01  -2.658410e-01  -1.562398e-01  -2.663015e-01  -3.754333e-01  -1.745826e-01
1.040000e+01  -9.889397e-02  6.457673e-01  -2.304712e-01  -2.513482e-01  -2.305330e-01  -2.518826e-01  -4.440365e-01  -3.337227e-02
1.060000e+01  1.767344e-01  5.822158e-01  -3.459813e-01  -1.594023e-01  -3.462154e-01  -1.599061e-01  -3.330662e-01  2.158158e-01
1.080000e+01  3.850402e-01  4.278734e-01  -3.848965e-01  7.402199e-03  -3.852684e-01  6.990389e-03  -6.202655e-02  3.273575e-01
1.100000e+01  5.181263e-01  2.077457e-01  -3.175711e-01  1.718042e-01  -3.180298e-01  1.715220e-01  2.274983e-01  2.306999e-01
1.120000e+01  5.513285e-01  -6.770015e-02  -1.673881e-01  2.657914e-01  -1.678799e-01  2.656464e-01  3.923007e-01  -5.214198e-02
1.140000e+01  4.342937e-01  -3.655483e-01  1.209392e-03  2.469425e-01  7.212649e-04  2.469255e-01  3.180107e-01  -4.044333e-01
1.160000e+01  1.224435e-01  -5.824051e-01  1.006734e-01  1.332187e-01  1.002200e-01  1.333328e-01  -1.619245e-04  -6.346065e-01
1.180000e+01  -3.114644e-01  -5.512247e-01  9.122342e-02  1.397490e-02  9.087460e-02  1.421242e-02  -4.061376e-01  -5.988535e-01
1.200000e+01  -6.293371e-01  -2.300622e-01  2.842773e-02  -3.904597e-02  2.824912e-02  -3.877477e-02  -6.944886e-01  -3.317694e-01
1.250000e+01  -3.808417e-01  6.108532e-01  -6.080724e-02  -1.675269e-02  -6.083901e-02  -1.676233e-02  -6.368390e-01  4.288801e-01
1.300000e+01  2.319040e-01  6.967389e-01  -8.778353e-02  3.448225e-02  -8.810819e-02  3.435070e-02  -1.740167e-01  7.064223e-01
1.350000e+01  6.014140e-01  3.263277e-01  -6.433964e-02  1.234606e-01  -6.513144e-02  1.237474e-01  2.135897e-01  6.452389e-01
1.400000e+01  3.656557e-01  1.092236e-01  6.683562e-02  1.508690e-01  6.667255e-02  1.517044e-01  3.739944e-01  4.183976e-01
1.450000e+01  4.411075e-01  1.514324e-01  1.636822e-01  -5.599664e-02  1.646941e-01  -5.500915e-02  4.443976e-01  4.572225e-01
1.500000e+01  5.482580e-01  -8.760622e-02  1.552205e-02  -1.384137e-01  1.658618e-02  -1.384548e-01  6.450045e-01  2.850968e-01
1.550000e+01  1.173917e-01  -3.042563e-01  -1.998435e-01  -1.108023e-01  -1.992090e-01  -1.118142e-01  6.636542e-01  7.773436e-02
1.600000e+01  3.034755e-01  3.459694e-01  -1.124805e-01  2.317859e-01  -1.131404e-01  2.315839e-01  6.983464e-01  -1.867707e-02
1.650000e+01  5.594692e-01  3.993980e-02  1.250722e-01  2.063032e-01  1.250405e-01  2.067680e-01  6.515101e-01  -2.258017e-01
1.700000e+01  6.344271e-01  9.241108e-02  1.536636e-01  -9.755647e-02  1.542046e-01  -9.778440e-02  5.993701e-01  -1.746601e-01
1.750000e+01  7.751487e-01  -2.275582e-01  1.029115e-02  -3.670142e-02  1.037175e-02  -3.699121e-02  6.643856e-01  -3.789152e-01
1.800000e+01  6.963419e-01  -4.578209e-01  1.293393e-02  1.209452e-04  1.293075e-02  -9.084622e-05  5.730463e-01  -5.498233e-01
1.850000e+01  5.711210e-01  -6.199449e-01  2.694787e-02  8.739639e-03  2.689612e-02  8.558361e-03  4.378067e-01  -6.723948e-01
1.900000e+01  4.112161e-01  -7.301343e-01  4.090571e-02  7.849125e-03  4.075216e-02  7.714929e-03  2.718536e-01  -7.478285e-01
1.950000e+01  2.359908e-01  -7.399461e-01  7.228253e-02  5.316254e-03  7.203894e-02  5.588383e-03  9.749577e-02  -7.724680e-01
2.000000e+01  2.076124e-01  -8.021589e-01  8.334295e-02  -7.019031e-02  8.394075e-02  -6.995609e-02  -1.318406e-01  -7.443080e-01
2.050000e+01  8.216600e-04  -8.827554e-01  4.801396e-02  -1.210767e-01  4.881827e-02  -1.215836e-01  -3.062431e-01  -4.920446e-01
2.100000e+01  -2.028427e-01  -8.643316e-01  -5.597073e-02  -1.420132e-01  -5.583602e-02  -1.433007e-01  -7.295991e-02  -3.000498e-01
2.150000e+01  -4.076303e-01  -7.948896e-01  -1.126754e-01  -6.325141e-02  -1.134242e-01  -6.432223e-02  -1.553874e-02  -5.196756e-01
2.200000e+01  -5.970576e-01  -6.437738e-01  -1.065684e-01  -1.499114e-03  -1.077372e-01  -2.054424e-03  -2.013629e-01  -6.004467e-01
2.250000e+01  -7.171401e-01  -4.119065e-01  -8.346559e-02  3.802499e-02  -8.469084e-02  3.799020e-02  -3.831063e-01  -5.342306e-01
2.300000e+01  -7.141451e-01  -1.447321e-01  -5.099004e-02  6.192196e-02  -5.223372e-02  6.215667e-02  -5.021289e-01  -3.890867e-01
2.350000e+01  -5.702004e-01  6.247265e-02  -1.535319e-02  6.406844e-02  -1.676235e-02  6.471905e-02  -5.408971e-01  -2.100191e-01
2.400000e+01  -3.823320e-01  1.034524e-01  7.074799e-03  5.242867e-02  5.545385e-03  5.384051e-02  -4.850842e-01  -4.515179e-02
2.450000e+01  -3.153712e-01  4.907310e-02  1.811853e-02  3.875786e-02  1.713040e-02  4.144060e-02  -3.699491e-01  2.433099e-02
2.500000e+01  -3.292029e-01  5.442940e-02  2.222776e-02  3.532784e-02  2.293599e-02  3.876440e-02  -3.353498e-01  5.587855e-03
2.550000e+01  -3.263539e-01  1.157216e-01  4.632229e-02  3.197273e-02  4.901827e-02  3.493697e-02  -3.815770e-01  9.007650e-02
2.600000e+01  -2.799843e-01  1.912818e-01  6.859157e-02  -7.963944e-03  7.293083e-02  -6.600839e-03  -2.731477e-01  2.653455e-01
2.650000e+01  -1.920276e-01  2.466762e-01  4.360149e-02  -5.963288e-02  4.850257e-02  -6.094969e-02  -2.414489e-02  2.627528e-01
2.700000e+01  -7.527201e-02  2.565732e-01  -1.463580e-02  -7.144702e-02  -1.116446e-02  -7.550095e-02  9.654912e-02  6.970379e-02
2.750000e+01  2.768267e-02  1.904874e-01  -5.753479e-02  -3.977619e-02  -5.696095e-02  -4.497995e-02  2.623791e-02  -1.002227e-01
2.800000e+01  4.425378e-02  9.475776e-02  -6.900259e-02  5.685018e-03  -7.118196e-02  1.315605e-03  -1.189370e-01  -1.402903e-01
2.850000e+01  1.920864e-02  5.968787e-02  -5.256919e-02  4.188714e-02  -5.636900e-02  3.964702e-02  -2.265441e-01  -6.449068e-02
2.900000e+01  1.830324e-02  4.265504e-02  -3.323721e-02  6.500134e-02  -3.687177e-02  6.513956e-02  -2.396771e-01  4.866718e-02
2.950000e+01  1.238844e-02  1.514843e-02  2.440865e-03  9.307044e-02  8.289811e-05  9.456091e-02  -1.912280e-01  1.242105e-01
3.000000e+01  -1.590382e-02  -4.241057e-03  6.976235e-02  9.031592e-02  6.892571e-02  9.200312e-02  -1.248518e-01  1.593446e-01
