! Generated by EMerge - 2-port S-parameters
! File generated: 2026-06-29 22:17 
# GHZ S RI R 50
4.000000e+00  2.878420e-01  6.078614e-01  -6.440045e-02  5.036300e-02  -6.138634e-02  4.792298e-02  3.990067e-01  5.973907e-01
4.500000e+00  4.158050e-01  2.317938e-01  -1.181733e-02  1.834006e-02  -1.329672e-02  2.063607e-02  2.822966e-01  1.272068e-01
5.000000e+00  2.646979e-01  -1.998395e-01  -6.845988e-02  -1.249920e-01  -5.041837e-02  -9.066484e-02  6.849249e-01  -4.134088e-01
5.500000e+00  1.976788e-01  -6.247253e-01  -4.606991e-01  -1.056845e-01  -4.392207e-01  -1.023295e-01  5.846682e-02  -7.181219e-01
6.000000e+00  -3.187443e-01  -2.704796e-01  -4.761697e-01  5.570936e-01  -4.113594e-01  4.747198e-01  -3.244850e-01  -2.026369e-01
6.500000e+00  -2.583083e-01  -1.156689e-01  1.350006e-01  5.848731e-01  1.462515e-01  6.593779e-01  -3.431662e-01  -4.809799e-02
7.000000e+00  -2.556709e-01  -3.291386e-02  5.805297e-01  3.366450e-01  5.732986e-01  3.480337e-01  -2.891093e-01  -4.272729e-02
7.500000e+00  -4.159384e-02  9.241163e-02  7.411394e-01  -2.481920e-01  6.140173e-01  -2.063476e-01  -1.891386e-02  2.147980e-01
8.000000e+00  4.572497e-01  -1.553731e-01  1.546550e-01  -4.217909e-01  1.866005e-01  -5.166601e-01  1.250489e-01  2.003558e-01
8.500000e+00  -1.171227e-01  -5.426487e-01  -1.184030e-01  -1.913187e-01  -1.051428e-01  -1.693517e-01  3.318221e-01  -2.180297e-01
9.000000e+00  -5.742270e-01  -6.631260e-01  2.227967e-02  -1.587536e-02  2.088643e-02  -1.413042e-02  3.541192e-01  -7.955955e-01
9.500000e+00  -7.671783e-01  9.461636e-02  7.753957e-02  -1.878024e-01  9.866756e-02  -2.354614e-01  -5.175933e-01  -5.121822e-01
1.000000e+01  -2.617967e-01  4.568188e-01  -1.588961e-01  -2.033453e-01  -1.866434e-01  -2.337882e-01  -5.910198e-01  -1.800549e-01
